5 6
3 3 0 147 1 123 2 145 2 3 140 1 130 2 3 150 4 160
3 2 0 214 2 150 2 2 87 1 66 2 4 178 5 95
3 2 0 87 1 62 2 2 180 3 105 3 3 190 4 100 5 153
3 2 0 87 1 65 1 4 173 2 3 145 5 136
3 3 1 123 2 145 0 128 3 2 86 3 65 4 47 2 4 110 5 85
